; benchmark generated from python API
(set-info :status unknown)
(declare-fun DISJ_W_S2_R_S1 () Bool)
(declare-fun W_S2_V3 () Bool)
(declare-fun R_S2_V4 () Bool)
(declare-fun R_S2_V5 () Bool)
(declare-fun DISJ_W_S1_R_S1 () Bool)
(declare-fun W_S1_V5 () Bool)
(declare-fun R_S1_V1 () Bool)
(declare-fun W_S2_V5 () Bool)
(declare-fun R_S2_V3 () Bool)
(declare-fun W_S1_V4 () Bool)
(declare-fun DISJ_W_S1_W_S2 () Bool)
(declare-fun DISJ_W_S1_R_S2 () Bool)
(declare-fun R_S1_V4 () Bool)
(declare-fun R_S1_V5 () Bool)
(declare-fun DISJ_W_S2_R_S2 () Bool)
(declare-fun R_E1_V4 () Bool)
(declare-fun R_E1_V5 () Bool)
(declare-fun W_S2_V2 () Bool)
(declare-fun W_S2_V1 () Bool)
(declare-fun R_S2_V2 () Bool)
(declare-fun R_S2_V1 () Bool)
(declare-fun R_S1_V2 () Bool)
(declare-fun R_S1_V3 () Bool)
(declare-fun R_E1_V2 () Bool)
(declare-fun DISJ_W_S2_R_E1 () Bool)
(declare-fun R_E1_V3 () Bool)
(declare-fun W_S2_V4 () Bool)
(declare-fun W_S1_V3 () Bool)
(declare-fun W_S1_V2 () Bool)
(declare-fun W_S1_V1 () Bool)
(declare-fun R_E1_V1 () Bool)
(declare-fun DISJ_W_S1_R_E1 () Bool)
(assert
 (let (($x3198 (not W_S2_V3)))
 (let (($x1927 (not R_S2_V4)))
 (let (($x5998 (not R_S2_V5)))
 (let (($x2156 (and $x5998 $x1927 $x3198 DISJ_W_S2_R_S1)))
 (let (($x2406 (not $x2156)))
 (let (($x1569 (not W_S1_V5)))
 (let (($x1813 (not R_S1_V1)))
 (let (($x5439 (not (and $x1813 $x1927 $x1569 $x3198 DISJ_W_S2_R_S1 DISJ_W_S1_R_S1))))
 (let (($x48 (not W_S2_V5)))
 (let (($x4412 (not R_S2_V3)))
 (let (($x197 (and $x4412 $x1927 $x48 DISJ_W_S2_R_S1)))
 (let (($x4289 (not $x197)))
 (let (($x1137 (and $x1927 $x48 $x3198 DISJ_W_S2_R_S1)))
 (let (($x3579 (not $x1137)))
 (let (($x1512 (not (and $x1813 $x4412 (not W_S1_V4) $x48 DISJ_W_S2_R_S1 DISJ_W_S1_R_S1))))
 (let (($x2515 (not (and $x1813 DISJ_W_S2_R_S1 DISJ_W_S1_W_S2 DISJ_W_S1_R_S1))))
 (let (($x358 (and DISJ_W_S1_R_S2 DISJ_W_S2_R_S1)))
 (let (($x4103 (not $x358)))
 (let (($x808 (not W_S1_V4)))
 (let (($x1657 (not R_S1_V4)))
 (let (($x5463 (not R_S1_V5)))
 (let (($x3005 (not (and $x5463 $x1657 $x1569 $x808 DISJ_W_S1_R_S2))))
 (let (($x3833 (not (and $x1657 $x1569 $x808 $x48 DISJ_W_S1_R_S2))))
 (let (($x531 (and DISJ_W_S2_R_S1 DISJ_W_S2_R_S2)))
 (let (($x3536 (not $x531)))
 (let (($x1401 (not (and W_S1_V4 R_E1_V4))))
 (let (($x585 (not (and W_S1_V5 R_E1_V5))))
 (let (($x5204 (forall ((V3_0 Int) )(forall ((V2_0 Int) )(forall ((V5_0 Int) )(forall ((V4_0 Int) )(forall ((MW_S1_V1 Bool) )(forall ((MW_S1_V3 Bool) )(forall ((MW_S1_V2 Bool) )(forall ((MW_S1_V5 Bool) )(forall ((MW_S1_V4 Bool) )(forall ((MW_S2_V1 Bool) )(forall ((MW_S2_V3 Bool) )(forall ((MW_S2_V2 Bool) )(forall ((MW_S2_V5 Bool) )(forall ((MW_S2_V4 Bool) )(forall ((S1_V1_!6442 Int) )(forall ((S1_V1_!6447 Int) )(forall ((S1_V1_!6464 Int) )(forall ((S1_V1_!6474 Int) )(forall ((S2_V5_!6456 Int) )(forall ((S2_V5_!6461 Int) )(forall ((S2_V5_!6472 Int) )(forall ((S2_V5_!6482 Int) )(forall ((S1_V3_!6443 Int) )(forall ((S1_V3_!6448 Int) )(forall ((S1_V3_!6465 Int) )(forall ((S1_V3_!6475 Int) )(forall ((S1_V2_!6444 Int) )(forall ((S1_V2_!6449 Int) )(forall ((S1_V2_!6466 Int) )(forall ((S1_V2_!6476 Int) )(forall ((E1_!6441 Int) )(forall ((E1_!6452 Int) )(forall ((E1_!6463 Int) )(forall ((S2_V4_!6457 Int) )(forall ((S2_V4_!6462 Int) )(forall ((S2_V4_!6473 Int) )(forall ((S2_V4_!6483 Int) )(forall ((S1_V5_!6445 Int) )(forall ((S1_V5_!6450 Int) )(forall ((S1_V5_!6467 Int) )(forall ((S1_V5_!6477 Int) )(forall ((S2_V1_!6453 Int) )(forall ((S2_V1_!6458 Int) )(forall ((S2_V1_!6469 Int) )(forall ((S2_V1_!6479 Int) )(forall ((S1_V4_!6446 Int) )(forall ((S1_V4_!6451 Int) )(forall ((S1_V4_!6468 Int) )(forall ((S1_V4_!6478 Int) )(forall ((S2_V2_!6455 Int) )(forall ((S2_V2_!6460 Int) )(forall ((S2_V2_!6471 Int) )(forall ((S2_V2_!6481 Int) )(forall ((S2_V3_!6454 Int) )(forall ((S2_V3_!6459 Int) )(forall ((S2_V3_!6470 Int) )(forall ((S2_V3_!6480 Int) )(let (($x1638 (= (ite MW_S2_V4 S2_V4_!6462 (ite MW_S1_V4 S1_V4_!6451 V4_0)) (ite MW_S2_V4 S2_V4_!6483 (ite MW_S1_V4 S1_V4_!6478 (ite MW_S2_V4 S2_V4_!6473 (ite MW_S1_V4 S1_V4_!6468 V4_0)))))))
 (let (($x1268 (= (ite MW_S2_V5 S2_V5_!6461 (ite MW_S1_V5 S1_V5_!6450 V5_0)) (ite MW_S2_V5 S2_V5_!6482 (ite MW_S1_V5 S1_V5_!6477 (ite MW_S2_V5 S2_V5_!6472 (ite MW_S1_V5 S1_V5_!6467 V5_0)))))))
 (let ((?x39 (ite MW_S1_V2 S1_V2_!6466 V2_0)))
 (let ((?x2771 (ite MW_S2_V2 S2_V2_!6471 ?x39)))
 (let ((?x3859 (ite MW_S1_V2 S1_V2_!6476 ?x2771)))
 (let ((?x4661 (ite MW_S2_V2 S2_V2_!6481 ?x3859)))
 (let ((?x5667 (ite MW_S1_V2 S1_V2_!6449 V2_0)))
 (let ((?x3791 (ite MW_S2_V2 S2_V2_!6460 ?x5667)))
 (let (($x2088 (= (ite MW_S2_V3 S2_V3_!6459 (ite MW_S1_V3 S1_V3_!6448 V3_0)) (ite MW_S2_V3 S2_V3_!6480 (ite MW_S1_V3 S1_V3_!6475 (ite MW_S2_V3 S2_V3_!6470 (ite MW_S1_V3 S1_V3_!6465 V3_0)))))))
 (let ((?x5963 (ite MW_S1_V1 S1_V1_!6464 E1_!6463)))
 (let ((?x617 (ite MW_S2_V1 S2_V1_!6469 ?x5963)))
 (let ((?x1083 (+ 1 ?x617)))
 (let ((?x6325 (ite MW_S1_V1 S1_V1_!6474 ?x1083)))
 (let ((?x5627 (ite MW_S2_V1 S2_V1_!6479 ?x6325)))
 (let ((?x1627 (ite MW_S2_V1 S2_V1_!6453 E1_!6452)))
 (let ((?x3504 (+ 1 ?x1627)))
 (let ((?x4862 (ite MW_S2_V1 S2_V1_!6458 ?x3504)))
 (let (($x457 (>= (ite MW_S1_V1 S1_V1_!6447 (+ 1 (ite MW_S1_V1 S1_V1_!6442 E1_!6441))) (+ (- 1) ?x5667))))
 (let (($x5684 (and (not (<= V2_0 E1_!6441)) (not (<= (ite MW_S1_V2 S1_V2_!6444 V2_0) (+ 1 (ite MW_S1_V1 S1_V1_!6442 E1_!6441)))) $x457 (not (<= ?x5667 E1_!6452)) (not (<= (ite MW_S2_V2 S2_V2_!6455 ?x5667) ?x3504)) (>= ?x4862 (+ (- 1) ?x3791)) (not (<= V2_0 E1_!6463)) (not (<= ?x2771 ?x1083)) (>= ?x5627 (+ (- 1) ?x4661)))))
 (let (($x778 (= S2_V3_!6470 S2_V3_!6480)))
 (let ((?x386 (ite MW_S1_V4 S1_V4_!6468 V4_0)))
 (let ((?x4348 (ite MW_S2_V4 S2_V4_!6473 ?x386)))
 (let ((?x5041 (ite MW_S1_V4 S1_V4_!6478 ?x4348)))
 (let (($x1927 (not R_S2_V4)))
 (let ((?x3511 (ite MW_S1_V5 S1_V5_!6467 V5_0)))
 (let ((?x4054 (ite MW_S2_V5 S2_V5_!6472 ?x3511)))
 (let ((?x3702 (ite MW_S1_V5 S1_V5_!6477 ?x4054)))
 (let (($x5998 (not R_S2_V5)))
 (let ((?x4863 (ite MW_S1_V3 S1_V3_!6465 V3_0)))
 (let ((?x4619 (ite MW_S2_V3 S2_V3_!6470 ?x4863)))
 (let ((?x909 (ite MW_S1_V3 S1_V3_!6475 ?x4619)))
 (let (($x4412 (not R_S2_V3)))
 (let (($x2583 (and (or (not R_S2_V1) (= ?x5963 ?x6325)) (or $x4412 (= ?x4863 ?x909)) (or (not R_S2_V2) (= ?x39 ?x3859)) (or $x5998 (= ?x3511 ?x3702)) (or $x1927 (= ?x386 ?x5041)))))
 (let (($x2766 (not $x2583)))
 (let (($x1787 (= S2_V3_!6470 S2_V3_!6454)))
 (let (($x5745 (and (or (not R_S2_V1) (= ?x5963 E1_!6452)) (or $x4412 (= ?x4863 (ite MW_S1_V3 S1_V3_!6448 V3_0))) (or (not R_S2_V2) (= ?x39 ?x5667)) (or $x5998 (= ?x3511 (ite MW_S1_V5 S1_V5_!6450 V5_0))) (or $x1927 (= ?x386 (ite MW_S1_V4 S1_V4_!6451 V4_0))))))
 (let (($x1848 (not $x5745)))
 (let (($x3466 (= S2_V3_!6459 S2_V3_!6480)))
 (let (($x5018 (and (or (not R_S2_V1) (= ?x1627 (+ (- 1) ?x6325))) (or $x4412 (= (ite MW_S2_V3 S2_V3_!6454 (ite MW_S1_V3 S1_V3_!6448 V3_0)) ?x909)) (or (not R_S2_V2) (= (ite MW_S2_V2 S2_V2_!6455 ?x5667) ?x3859)) (or $x5998 (= (ite MW_S2_V5 S2_V5_!6456 (ite MW_S1_V5 S1_V5_!6450 V5_0)) ?x3702)) (or $x1927 (= (ite MW_S2_V4 S2_V4_!6457 (ite MW_S1_V4 S1_V4_!6451 V4_0)) ?x5041)))))
 (let (($x88 (not $x5018)))
 (let (($x1478 (= S2_V3_!6459 S2_V3_!6470)))
 (let (($x654 (and (or (not R_S2_V1) (= ?x1627 (+ (- 1) ?x5963))) (or $x4412 (= (ite MW_S2_V3 S2_V3_!6454 (ite MW_S1_V3 S1_V3_!6448 V3_0)) ?x4863)) (or (not R_S2_V2) (= (ite MW_S2_V2 S2_V2_!6455 ?x5667) ?x39)) (or $x5998 (= (ite MW_S2_V5 S2_V5_!6456 (ite MW_S1_V5 S1_V5_!6450 V5_0)) ?x3511)) (or $x1927 (= (ite MW_S2_V4 S2_V4_!6457 (ite MW_S1_V4 S1_V4_!6451 V4_0)) ?x386)))))
 (let (($x876 (not $x654)))
 (let (($x5719 (= S2_V3_!6459 S2_V3_!6454)))
 (let (($x1057 (or $x1927 (= (ite MW_S2_V4 S2_V4_!6457 (ite MW_S1_V4 S1_V4_!6451 V4_0)) (ite MW_S1_V4 S1_V4_!6451 V4_0)))))
 (let (($x1390 (or $x5998 (= (ite MW_S2_V5 S2_V5_!6456 (ite MW_S1_V5 S1_V5_!6450 V5_0)) (ite MW_S1_V5 S1_V5_!6450 V5_0)))))
 (let (($x5626 (or $x4412 (= (ite MW_S2_V3 S2_V3_!6454 (ite MW_S1_V3 S1_V3_!6448 V3_0)) (ite MW_S1_V3 S1_V3_!6448 V3_0)))))
 (let (($x1229 (and (or (not R_S2_V1) (= ?x1627 (+ (- 1) E1_!6452))) $x5626 (or (not R_S2_V2) (= (ite MW_S2_V2 S2_V2_!6455 ?x5667) ?x5667)) $x1390 $x1057)))
 (let (($x2172 (not $x1229)))
 (let (($x5900 (= S2_V3_!6454 S2_V3_!6480)))
 (let (($x1868 (and (or (not R_S2_V1) (= E1_!6452 ?x6325)) (or $x4412 (= (ite MW_S1_V3 S1_V3_!6448 V3_0) ?x909)) (or (not R_S2_V2) (= ?x5667 ?x3859)) (or $x5998 (= (ite MW_S1_V5 S1_V5_!6450 V5_0) ?x3702)) (or $x1927 (= (ite MW_S1_V4 S1_V4_!6451 V4_0) ?x5041)))))
 (let (($x3898 (not $x1868)))
 (let (($x5251 (= S2_V2_!6481 S2_V2_!6460)))
 (let (($x2965 (and (or (not R_S2_V1) (= ?x6325 ?x3504)) (or $x4412 (= ?x909 (ite MW_S2_V3 S2_V3_!6454 (ite MW_S1_V3 S1_V3_!6448 V3_0)))) (or (not R_S2_V2) (= ?x3859 (ite MW_S2_V2 S2_V2_!6455 ?x5667))) (or $x5998 (= ?x3702 (ite MW_S2_V5 S2_V5_!6456 (ite MW_S1_V5 S1_V5_!6450 V5_0)))) (or $x1927 (= ?x5041 (ite MW_S2_V4 S2_V4_!6457 (ite MW_S1_V4 S1_V4_!6451 V4_0)))))))
 (let (($x884 (= S2_V2_!6481 S2_V2_!6455)))
 (let (($x1179 (and (or (not R_S2_V1) (= ?x6325 E1_!6452)) (or $x4412 (= ?x909 (ite MW_S1_V3 S1_V3_!6448 V3_0))) (or (not R_S2_V2) (= ?x3859 ?x5667)) (or $x5998 (= ?x3702 (ite MW_S1_V5 S1_V5_!6450 V5_0))) (or $x1927 (= ?x5041 (ite MW_S1_V4 S1_V4_!6451 V4_0))))))
 (let (($x2411 (not $x1179)))
 (let (($x5498 (= S2_V2_!6471 S2_V2_!6460)))
 (let (($x3361 (and (or (not R_S2_V1) (= ?x5963 ?x3504)) (or $x4412 (= ?x4863 (ite MW_S2_V3 S2_V3_!6454 (ite MW_S1_V3 S1_V3_!6448 V3_0)))) (or (not R_S2_V2) (= ?x39 (ite MW_S2_V2 S2_V2_!6455 ?x5667))) (or $x5998 (= ?x3511 (ite MW_S2_V5 S2_V5_!6456 (ite MW_S1_V5 S1_V5_!6450 V5_0)))) (or $x1927 (= ?x386 (ite MW_S2_V4 S2_V4_!6457 (ite MW_S1_V4 S1_V4_!6451 V4_0)))))))
 (let (($x688 (and (or (not R_S1_V1) (= ?x617 (ite MW_S1_V1 S1_V1_!6442 E1_!6441))) (or (not R_S1_V3) (= ?x4619 (ite MW_S1_V3 S1_V3_!6443 V3_0))) (or (not R_S1_V2) (= ?x2771 (ite MW_S1_V2 S1_V2_!6444 V2_0))) (or (not R_S1_V5) (= ?x4054 (ite MW_S1_V5 S1_V5_!6445 V5_0))) (or (not R_S1_V4) (= ?x4348 (ite MW_S1_V4 S1_V4_!6446 V4_0))))))
 (let (($x1662 (not $x688)))
 (let (($x1657 (not R_S1_V4)))
 (let (($x3585 (or $x1657 (= V4_0 ?x4348))))
 (let (($x5463 (not R_S1_V5)))
 (let (($x5815 (or $x5463 (= V5_0 ?x4054))))
 (let (($x3224 (not R_S1_V2)))
 (let (($x3568 (or $x3224 (= V2_0 ?x2771))))
 (let (($x2234 (not R_S1_V3)))
 (let (($x4355 (or $x2234 (= V3_0 ?x4619))))
 (let (($x5902 (not (and (or (not R_S1_V1) (= E1_!6463 ?x1083)) $x4355 $x3568 $x5815 $x3585))))
 (let (($x1866 (or $x1657 (= V4_0 (ite MW_S1_V4 S1_V4_!6446 V4_0)))))
 (let (($x3944 (or $x5463 (= V5_0 (ite MW_S1_V5 S1_V5_!6445 V5_0)))))
 (let (($x327 (or $x3224 (= V2_0 (ite MW_S1_V2 S1_V2_!6444 V2_0)))))
 (let (($x4284 (or $x2234 (= V3_0 (ite MW_S1_V3 S1_V3_!6443 V3_0)))))
 (let (($x547 (and (or (not R_S1_V1) (= E1_!6463 (+ 1 (ite MW_S1_V1 S1_V1_!6442 E1_!6441)))) $x4284 $x327 $x3944 $x1866)))
 (let (($x1739 (not $x547)))
 (let (($x3075 (not (and (or (not R_S1_V1) (= E1_!6441 ?x1083)) $x4355 $x3568 $x5815 $x3585))))
 (let (($x514 (and (or (not R_S1_V1) (= E1_!6441 (+ 1 (ite MW_S1_V1 S1_V1_!6442 E1_!6441)))) $x4284 $x327 $x3944 $x1866)))
 (let (($x952 (not $x514)))
 (let (($x941 (or $x1657 (= ?x4348 V4_0))))
 (let (($x1862 (or $x5463 (= ?x4054 V5_0))))
 (let (($x2119 (or $x3224 (= ?x2771 V2_0))))
 (let (($x1954 (or $x2234 (= ?x4619 V3_0))))
 (let (($x1499 (and (or (not R_S1_V1) (= ?x617 (+ (- 1) E1_!6463))) $x1954 $x2119 $x1862 $x941)))
 (let (($x2347 (not $x1499)))
 (let (($x3359 (and (or (not R_S1_V1) (= ?x617 (+ (- 1) E1_!6441))) $x1954 $x2119 $x1862 $x941)))
 (let (($x5780 (not $x3359)))
 (let (($x3673 (= S2_V4_!6483 S2_V4_!6473)))
 (let (($x5081 (and (or (not R_S2_V1) (= ?x6325 ?x5963)) (or $x4412 (= ?x909 ?x4863)) (or (not R_S2_V2) (= ?x3859 ?x39)) (or $x5998 (= ?x3702 ?x3511)) (or $x1927 (= ?x5041 ?x386)))))
 (let (($x1980 (= E1_!6452 E1_!6463)))
 (let (($x1396 (and (or (not R_E1_V2) (= ?x5667 V2_0)) (or (not R_E1_V5) (= (ite MW_S1_V5 S1_V5_!6450 V5_0) V5_0)) (or (not R_E1_V4) (= (ite MW_S1_V4 S1_V4_!6451 V4_0) V4_0)))))
 (let (($x4512 (= E1_!6441 E1_!6463)))
 (let (($x5461 (and (or (not R_E1_V2) (= V2_0 ?x5667)) (or (not R_E1_V5) (= V5_0 (ite MW_S1_V5 S1_V5_!6450 V5_0))) (or (not R_E1_V4) (= V4_0 (ite MW_S1_V4 S1_V4_!6451 V4_0))))))
 (let (($x544 (= S1_V2_!6449 S1_V2_!6476)))
 (let (($x1418 (and (or (not R_S1_V1) (= (ite MW_S1_V1 S1_V1_!6442 E1_!6441) ?x617)) (or $x2234 (= (ite MW_S1_V3 S1_V3_!6443 V3_0) ?x4619)) (or $x3224 (= (ite MW_S1_V2 S1_V2_!6444 V2_0) ?x2771)) (or $x5463 (= (ite MW_S1_V5 S1_V5_!6445 V5_0) ?x4054)) (or $x1657 (= (ite MW_S1_V4 S1_V4_!6446 V4_0) ?x4348)))))
 (let (($x4879 (not $x1418)))
 (let (($x3783 (or $x1657 (= (ite MW_S1_V4 S1_V4_!6446 V4_0) V4_0))))
 (let (($x4087 (or $x5463 (= (ite MW_S1_V5 S1_V5_!6445 V5_0) V5_0))))
 (let (($x5711 (or $x3224 (= (ite MW_S1_V2 S1_V2_!6444 V2_0) V2_0))))
 (let (($x5910 (or $x2234 (= (ite MW_S1_V3 S1_V3_!6443 V3_0) V3_0))))
 (let (($x95 (and (or (not R_S1_V1) (= (ite MW_S1_V1 S1_V1_!6442 E1_!6441) (+ (- 1) E1_!6463))) $x5910 $x5711 $x4087 $x3783)))
 (let (($x5178 (not $x95)))
 (let (($x510 (and (or (not R_S1_V1) (= (ite MW_S1_V1 S1_V1_!6442 E1_!6441) (+ (- 1) E1_!6441))) $x5910 $x5711 $x4087 $x3783)))
 (let (($x1218 (not $x510)))
 (let (($x4989 (and (or (not R_S2_V1) (= E1_!6452 ?x5963)) (or $x4412 (= (ite MW_S1_V3 S1_V3_!6448 V3_0) ?x4863)) (or (not R_S2_V2) (= ?x5667 ?x39)) (or $x5998 (= (ite MW_S1_V5 S1_V5_!6450 V5_0) ?x3511)) (or $x1927 (= (ite MW_S1_V4 S1_V4_!6451 V4_0) ?x386)))))
 (let (($x2531 (and (or (not (or (not R_S1_V1) $x4512)) (= S1_V1_!6442 S1_V1_!6464)) (or $x1218 (= S1_V1_!6447 S1_V1_!6442)) (or $x5178 (= S1_V1_!6447 S1_V1_!6464)) (or $x5780 (= S1_V1_!6474 S1_V1_!6442)) (or $x1662 (= S1_V1_!6474 S1_V1_!6447)) (or $x2347 (= S1_V1_!6474 S1_V1_!6464)) (or (not $x4989) (= S2_V5_!6456 S2_V5_!6472)) (or $x3898 (= S2_V5_!6456 S2_V5_!6482)) (or $x2172 (= S2_V5_!6461 S2_V5_!6456)) (or $x876 (= S2_V5_!6461 S2_V5_!6472)) (or $x88 (= S2_V5_!6461 S2_V5_!6482)) (or $x2766 (= S2_V5_!6472 S2_V5_!6482)) (or (not (or (not R_S1_V1) $x4512)) (= S1_V3_!6443 S1_V3_!6465)) (or $x3075 (= S1_V3_!6443 S1_V3_!6475)) (or $x1218 (= S1_V3_!6448 S1_V3_!6443)) (or $x5178 (= S1_V3_!6448 S1_V3_!6465)) (or $x4879 (= S1_V3_!6448 S1_V3_!6475)) (or $x5902 (= S1_V3_!6465 S1_V3_!6475)) (or (not (or (not R_S1_V1) $x4512)) (= S1_V2_!6444 S1_V2_!6466)) (or $x1218 (= S1_V2_!6449 S1_V2_!6444)) (or $x5178 (= S1_V2_!6449 S1_V2_!6466)) (or $x4879 $x544) (or $x5780 (= S1_V2_!6476 S1_V2_!6444)) (or $x2347 (= S1_V2_!6476 S1_V2_!6466)) (or (not $x5461) (= E1_!6441 E1_!6452)) $x4512 (or (not $x1396) $x1980) (or $x2172 (= S2_V4_!6462 S2_V4_!6457)) (or $x876 (= S2_V4_!6462 S2_V4_!6473)) (or $x88 (= S2_V4_!6462 S2_V4_!6483)) (or $x1848 (= S2_V4_!6473 S2_V4_!6457)) (or $x2411 (= S2_V4_!6483 S2_V4_!6457)) (or (not $x5081) $x3673) (or $x952 (= S1_V5_!6445 S1_V5_!6450)) (or (not (or (not R_S1_V1) (= E1_!6463 E1_!6441))) (= S1_V5_!6467 S1_V5_!6445)) (or $x1739 (= S1_V5_!6467 S1_V5_!6450)) (or $x5780 (= S1_V5_!6477 S1_V5_!6445)) (or $x1662 (= S1_V5_!6477 S1_V5_!6450)) (or $x2347 (= S1_V5_!6477 S1_V5_!6467)) (or $x2172 (= S2_V1_!6458 S2_V1_!6453)) (or $x876 (= S2_V1_!6458 S2_V1_!6469)) (or $x88 (= S2_V1_!6458 S2_V1_!6479)) (or $x1848 (= S2_V1_!6469 S2_V1_!6453)) (or $x2766 (= S2_V1_!6469 S2_V1_!6479)) (or $x2411 (= S2_V1_!6479 S2_V1_!6453)) (or $x952 (= S1_V4_!6446 S1_V4_!6451)) (or $x3075 (= S1_V4_!6446 S1_V4_!6478)) (or (not (or (not R_S1_V1) (= E1_!6463 E1_!6441))) (= S1_V4_!6468 S1_V4_!6446)) (or $x1739 (= S1_V4_!6468 S1_V4_!6451)) (or $x5902 (= S1_V4_!6468 S1_V4_!6478)) (or $x1662 (= S1_V4_!6478 S1_V4_!6451)) (or $x2172 (= S2_V2_!6460 S2_V2_!6455)) (or $x1848 (= S2_V2_!6471 S2_V2_!6455)) (or (not $x3361) $x5498) (or $x2766 (= S2_V2_!6471 S2_V2_!6481)) (or $x2411 $x884) (or (not $x2965) $x5251) (or $x3898 $x5900) (or $x2172 $x5719) (or $x876 $x1478) (or $x88 $x3466) (or $x1848 $x1787) (or $x2766 $x778) (not MW_S1_V1) (not MW_S1_V2) (or (not MW_S1_V5) W_S1_V5) (or (not MW_S1_V4) W_S1_V4) (or (not MW_S2_V1) W_S2_V1) (or (not MW_S2_V3) W_S2_V3) (or (not MW_S2_V2) W_S2_V2) (or (not MW_S2_V5) W_S2_V5))))
 (or (not $x2531) (not $x5684) (and (= ?x4862 ?x5627) $x2088 (= ?x3791 ?x4661) $x1268 $x1638)))))))))))))))))))))))))))))))))))))))))))))))))))))))))))))))))))))))))))))))))))))))))))))))))))))))))))))
 )
 )
 )
 )
 )
 )
 )
 )
 )
 )
 )
 )
 )
 )
 )
 )
 )
 )
 )
 )
 )
 )
 )
 )
 )
 )
 )
 )
 )
 )
 )
 )
 )
 )
 )
 )
 )
 )
 )
 )
 )
 )
 )
 )
 )
 )
 )
 )
 )
 )
 )
 )
 )
 )
 )
 )
 ))
 (let (($x2377 (not (or (and W_S2_V2 R_E1_V2) (and W_S2_V5 R_E1_V5) R_E1_V4))))
 (let (($x1557 (= DISJ_W_S2_R_E1 $x2377)))
 (let (($x5675 (and W_S2_V5 R_S2_V5)))
 (let (($x875 (and W_S2_V2 R_S2_V2)))
 (let (($x1771 (and W_S2_V3 R_S2_V3)))
 (let (($x2455 (and W_S2_V1 R_S2_V1)))
 (let (($x1786 (= DISJ_W_S2_R_S2 (not (or $x2455 $x1771 $x875 $x5675 R_S2_V4)))))
 (let (($x530 (and W_S2_V5 R_S1_V5)))
 (let (($x4109 (and W_S2_V2 R_S1_V2)))
 (let (($x4168 (and W_S2_V3 R_S1_V3)))
 (let (($x738 (and W_S2_V1 R_S1_V1)))
 (let (($x707 (= DISJ_W_S2_R_S1 (not (or $x738 $x4168 $x4109 $x530 R_S1_V4)))))
 (let (($x899 (= DISJ_W_S1_W_S2 (not (or W_S2_V3 (and W_S1_V5 W_S2_V5) W_S1_V4)))))
 (let (($x5762 (not R_E1_V3)))
 (let (($x2072 (not (or R_S2_V3 (and W_S1_V5 R_S2_V5) (and W_S1_V4 R_S2_V4)))))
 (let (($x2958 (= DISJ_W_S1_R_S2 $x2072)))
 (let (($x2581 (or R_S1_V3 (and W_S1_V5 R_S1_V5) (and W_S1_V4 R_S1_V4))))
 (let (($x3787 (= DISJ_W_S1_R_S1 (not $x2581))))
 (let (($x4958 (not W_S2_V2)))
 (let (($x3413 (not R_S2_V1)))
 (let (($x1471 (and $x3413 $x1927 $x4958 $x3198 DISJ_W_S2_R_S1)))
 (let (($x2028 (and $x1927 $x1569 $x3198 DISJ_W_S2_R_S1)))
 (let (($x1392 (and $x3413 $x5998 $x4958 $x3198 DISJ_W_S2_R_S1)))
 (let (($x3637 (and $x5998 $x808 $x3198 DISJ_W_S2_R_S1)))
 (let (($x3137 (and $x3413 $x4958 $x48 $x3198 DISJ_W_S2_R_S1)))
 (let (($x1673 (and DISJ_W_S1_W_S2 DISJ_W_S2_R_S1)))
 (let (($x3077 (and $x3413 $x4412 $x5998 $x4958 DISJ_W_S2_R_S1)))
 (let (($x554 (and $x3413 $x4412 $x1927 $x4958 DISJ_W_S2_R_S1)))
 (let (($x5818 (and $x3413 $x1927 $x4958 $x48 DISJ_W_S2_R_S1)))
 (let (($x392 (and $x3413 $x5998 $x1927 $x4958 DISJ_W_S2_R_S1)))
 (let (($x1558 (and $x3413 $x4412 $x4958 $x48 DISJ_W_S2_R_S1)))
 (let (($x3646 (and (not W_S2_V1) $x4958)))
 (let (($x1416 (and $x4412 $x808 $x48 DISJ_W_S2_R_S1)))
 (let (($x2943 (and $x4958 DISJ_W_S2_R_S2)))
 (let (($x5062 (or $x531 $x2943 $x358 $x1416 $x1137 $x197 $x3646 $x1558 $x392 $x5818 $x554 $x3077 $x1673 $x3137 $x3637 $x1392 $x2028 $x2156 $x1471)))
 (let (($x3012 (and $x1813 DISJ_W_S1_R_S1)))
 (let (($x5128 (and $x4958 DISJ_W_S2_R_S1 DISJ_W_S1_R_S1)))
 (let (($x2242 (or $x5128 $x3646 $x3012)))
 (let (($x2695 (not W_S1_V2)))
 (let (($x2125 (not W_S1_V1)))
 (let (($x1271 (not R_E1_V1)))
 (let (($x3199 (and DISJ_W_S1_R_E1 $x1271 $x2125 $x2695 $x2242 $x5062 W_S1_V3 W_S2_V4 $x3787 $x2958 $x5762 $x899 $x707 $x1786 $x1557 $x5204 $x585 $x1401)))
 (and $x3199 $x3536 $x3833 $x3005 $x4103 $x2515 $x1512 $x3579 $x4289 $x5439 $x2406))))))))))))))))))))))))))))))))))))))))))))))))))))))))))))))))))))))))
(check-sat)
